<number of tasks>
70

<cycle time>
220

<task times>
1 17
2 66
3 54
4 52
5 6
6 88
7 21
8 128
9 68
10 70
11 85
12 21
13 134
14 135
15 94
16 90
17 50
18 143
19 19
20 54
21 50
22 40
23 73
24 12
25 152
26 42
27 45
28 74
29 26
30 11
31 31
32 50
33 102
34 46
35 35
36 40
37 2
38 1
39 3
40 13
41 16
42 25
43 21
44 43
45 30
46 83
47 89
48 56
49 59
50 43
51 11
52 26
53 44
54 121
55 38
56 68
57 22
58 7
59 16
60 32
61 25
62 27
63 156
64 28
65 15
66 26
67 18
68 72
69 23
70 27

<precedence relations>
1,2
1,41
1,69
1,70
2,3
3,4
3,68
4,6
4,7
5,6
5,24
5,30
6,8
7,8
8,12
9,10
10,11
11,12
12,13
12,14
13,23
14,23
15,16
16,17
16,18
17,19
18,19
19,20
19,22
19,57
20,21
21,23
22,23
23,25
23,31
23,33
24,25
25,26
25,27
25,28
25,29
26,35
27,35
28,35
29,35
30,31
31,32
32,35
33,34
34,35
35,36
35,44
35,48
35,51
35,53
35,56
35,60
35,61
35,62
36,37
37,38
38,39
39,40
40,42
41,42
42,43
43,50
44,45
45,46
46,47
47,50
48,49
49,50
51,52
52,54
53,54
54,55
57,58
58,59
59,60
61,65
62,63
63,64
64,65
64,66
64,67

<setup times forward>
1,9:10
1,10:4
1,11:3
1,15:10
1,16:4
1,17:3
1,18:5
1,19:5
1,20:5
1,22:9
1,24:10
1,30:4
1,41:10
1,59:9
1,69:4
1,70:10
2,9:10
2,10:4
2,11:3
2,15:10
2,16:4
2,17:3
2,18:5
2,19:5
2,20:5
2,22:9
2,24:10
2,30:4
2,41:10
2,59:9
2,69:4
2,70:10
3,9:10
3,10:4
3,11:3
3,15:10
3,16:4
3,17:3
3,18:5
3,19:5
3,20:5
3,22:9
3,24:10
3,30:4
3,41:10
3,59:9
3,68:13
3,69:4
3,70:10
4,6:4
4,9:10
4,10:4
4,11:3
4,15:10
4,16:4
4,17:3
4,18:5
4,19:5
4,20:5
4,22:9
4,24:10
4,30:4
4,41:10
4,59:9
4,68:13
4,69:4
4,70:10
5,6:4
5,9:10
5,10:4
5,11:3
5,15:10
5,16:4
5,17:3
5,18:5
5,19:5
5,20:5
5,22:9
5,24:10
5,30:4
5,41:10
5,59:9
5,68:13
5,69:4
5,70:10
6,7:4
6,8:8
6,9:14
6,10:8
6,11:7
6,15:14
6,17:7
6,18:1
6,19:1
6,20:1
6,21:4
6,22:5
6,24:14
6,41:14
6,57:4
6,58:4
6,59:5
6,68:9
6,70:14
7,6:4
7,8:4
7,9:10
7,10:4
7,11:3
7,15:10
7,16:4
7,17:3
7,18:5
7,19:5
7,20:5
7,22:9
7,24:10
7,30:4
7,41:10
7,59:9
7,68:13
7,69:4
7,70:10
8,9:6
8,11:1
8,12:1
8,15:6
8,16:8
8,17:1
8,18:9
8,19:9
8,20:9
8,21:4
8,22:13
8,24:6
8,30:8
8,41:6
8,57:4
8,58:4
8,59:13
8,68:17
8,69:8
8,70:6
9,1:10
9,2:10
9,3:10
9,4:10
9,5:10
9,6:14
9,7:10
9,8:6
9,10:6
9,16:14
9,17:7
9,18:15
9,19:15
9,20:15
9,21:10
9,22:19
9,30:14
9,57:10
9,58:10
9,59:19
9,68:23
9,69:14
10,1:4
10,2:4
10,3:4
10,4:4
10,5:4
10,6:8
10,7:4
10,11:1
10,15:6
10,16:8
10,17:1
10,18:9
10,19:9
10,20:9
10,21:4
10,22:13
10,24:6
10,30:8
10,41:6
10,57:4
10,58:4
10,59:13
10,68:17
10,69:8
10,70:6
11,1:3
11,2:3
11,3:3
11,4:3
11,5:3
11,6:7
11,7:3
11,8:1
11,15:7
11,16:7
11,18:8
11,19:8
11,20:8
11,21:3
11,22:12
11,24:7
11,30:7
11,41:7
11,57:3
11,58:3
11,59:12
11,68:16
11,69:7
11,70:7
12,13:12
12,14:3
12,15:7
12,16:7
12,18:8
12,19:8
12,20:8
12,21:3
12,22:12
12,24:7
12,30:7
12,41:7
12,57:3
12,58:3
12,59:12
12,68:16
12,69:7
12,70:7
13,14:9
13,15:19
13,16:5
13,17:12
13,18:4
13,19:4
13,20:4
13,21:9
13,23:15
13,24:19
13,30:5
13,41:19
13,57:9
13,58:9
13,68:4
13,69:5
13,70:19
14,13:9
14,15:10
14,16:4
14,17:3
14,18:5
14,19:5
14,20:5
14,22:9
14,23:6
14,24:10
14,30:4
14,41:10
14,59:9
14,68:13
14,69:4
14,70:10
15,1:10
15,2:10
15,3:10
15,4:10
15,5:10
15,6:14
15,7:10
15,8:6
15,10:6
15,11:7
15,12:7
15,13:19
15,14:10
15,16:14
15,30:14
15,68:23
15,69:14
16,1:4
16,2:4
16,3:4
16,4:4
16,5:4
16,7:4
16,8:8
16,9:14
16,10:8
16,11:7
16,12:7
16,13:5
16,14:4
16,17:7
16,18:1
16,24:14
16,41:14
16,68:9
16,70:14
17,1:3
17,2:3
17,3:3
17,4:3
17,5:3
17,6:7
17,7:3
17,8:1
17,9:7
17,10:1
17,13:12
17,14:3
17,18:8
17,19:8
17,24:7
17,30:7
17,41:7
17,68:16
17,69:7
17,70:7
18,1:5
18,2:5
18,3:5
18,4:5
18,5:5
18,6:1
18,7:5
18,8:9
18,9:15
18,10:9
18,11:8
18,12:8
18,13:4
18,14:5
18,17:8
18,24:15
18,30:1
18,41:15
18,68:8
18,69:1
18,70:15
19,1:5
19,2:5
19,3:5
19,4:5
19,5:5
19,6:1
19,7:5
19,8:9
19,9:15
19,10:9
19,11:8
19,12:8
19,13:4
19,14:5
19,22:4
19,24:15
19,30:1
19,41:15
19,57:5
19,68:8
19,69:1
19,70:15
20,1:5
20,2:5
20,3:5
20,4:5
20,5:5
20,6:1
20,7:5
20,8:9
20,9:15
20,10:9
20,11:8
20,12:8
20,13:4
20,14:5
20,21:5
20,22:4
20,24:15
20,30:1
20,41:15
20,57:5
20,58:5
20,59:4
20,68:8
20,69:1
20,70:15
21,6:4
21,8:4
21,9:10
21,10:4
21,11:3
21,12:3
21,13:9
21,22:9
21,23:6
21,24:10
21,30:4
21,41:10
21,59:9
21,68:13
21,69:4
21,70:10
22,1:9
22,2:9
22,3:9
22,4:9
22,5:9
22,6:5
22,7:9
22,8:13
22,9:19
22,10:13
22,11:12
22,12:12
22,14:9
22,20:4
22,21:9
22,23:15
22,24:19
22,30:5
22,41:19
22,57:9
22,58:9
22,68:4
22,69:5
22,70:19
23,24:4
23,25:10
23,30:10
23,41:4
23,57:6
23,58:6
23,59:15
23,68:19
23,69:10
23,70:4
24,1:10
24,2:10
24,3:10
24,4:10
24,6:14
24,7:10
24,8:6
24,10:6
24,11:7
24,12:7
24,13:19
24,14:10
24,16:14
24,17:7
24,18:15
24,19:15
24,20:15
24,21:10
24,22:19
24,23:4
24,25:14
24,30:14
24,31:4
24,32:14
24,33:4
24,34:21
24,57:10
24,58:10
24,59:19
24,68:23
24,69:14
25,26:7
25,27:7
25,28:7
25,29:3
25,31:10
25,33:10
25,34:7
25,41:14
25,57:4
25,58:4
25,59:5
25,68:9
25,70:14
26,29:10
26,30:7
26,31:17
26,32:7
26,33:17
26,35:10
26,41:21
26,57:11
26,58:11
26,59:2
26,68:2
26,69:7
26,70:21
27,29:10
27,30:7
27,31:17
27,32:7
27,33:17
27,35:10
27,41:21
27,57:11
27,58:11
27,59:2
27,68:2
27,69:7
27,70:21
28,29:10
28,30:7
28,31:17
28,32:7
28,33:17
28,35:10
28,41:21
28,57:11
28,58:11
28,59:2
28,68:2
28,69:7
28,70:21
29,26:10
29,27:10
29,28:10
29,30:3
29,31:7
29,32:3
29,33:7
29,34:10
29,41:11
29,57:1
29,58:1
29,59:8
29,68:12
29,69:3
29,70:11
30,1:4
30,2:4
30,3:4
30,4:4
30,7:4
30,8:8
30,9:14
30,10:8
30,11:7
30,12:7
30,13:5
30,14:4
30,15:14
30,17:7
30,18:1
30,19:1
30,20:1
30,21:4
30,22:5
30,23:10
30,24:14
30,26:7
30,27:7
30,28:7
30,29:3
30,31:10
30,33:10
30,34:7
30,41:14
30,57:4
30,58:4
30,59:5
30,68:9
30,70:14
31,24:4
31,25:10
31,26:17
31,27:17
31,28:17
31,29:7
31,32:10
31,34:17
31,41:4
31,57:6
31,58:6
31,59:15
31,68:19
31,69:10
31,70:4
32,24:14
32,26:7
32,27:7
32,28:7
32,29:3
32,33:10
32,34:7
32,35:3
32,41:14
32,57:4
32,58:4
32,59:5
32,68:9
32,70:14
33,24:4
33,25:10
33,26:17
33,27:17
33,28:17
33,29:7
33,30:10
33,32:10
33,34:17
33,41:4
33,57:6
33,58:6
33,59:15
33,68:19
33,69:10
33,70:4
34,24:21
34,25:7
34,29:10
34,30:7
34,31:17
34,32:7
34,35:10
34,41:21
34,57:11
34,58:11
34,59:2
34,68:2
34,69:7
34,70:21
35,36:8
35,41:11
35,48:8
35,56:10
35,57:1
35,58:1
35,59:8
35,60:10
35,61:10
35,68:12
35,69:3
35,70:11
36,41:3
36,44:8
36,45:8
36,46:20
36,47:3
36,49:20
36,51:8
36,52:4
36,53:8
36,55:3
36,56:18
36,57:7
36,58:7
36,59:16
36,60:18
36,61:18
36,62:8
36,63:4
36,64:4
36,65:18
36,66:18
36,67:18
36,68:20
36,69:11
36,70:3
37,41:3
37,44:8
37,45:8
37,46:20
37,47:3
37,49:20
37,51:8
37,52:4
37,53:8
37,55:3
37,56:18
37,57:7
37,58:7
37,59:16
37,60:18
37,61:18
37,62:8
37,63:4
37,64:4
37,65:18
37,66:18
37,67:18
37,68:20
37,69:11
37,70:3
38,39:20
38,41:3
38,44:8
38,45:8
38,46:20
38,47:3
38,49:20
38,51:8
38,52:4
38,53:8
38,55:3
38,56:18
38,57:7
38,58:7
38,59:16
38,60:18
38,61:18
38,62:8
38,63:4
38,64:4
38,65:18
38,66:18
38,67:18
38,68:20
38,69:11
38,70:3
39,40:2
39,41:23
39,44:12
39,45:12
39,47:23
39,48:20
39,51:12
39,52:16
39,53:12
39,54:20
39,55:23
39,56:2
39,57:13
39,58:13
39,59:4
39,60:2
39,61:2
39,62:12
39,63:16
39,64:16
39,65:2
39,66:2
39,67:2
39,69:9
39,70:23
40,41:21
40,42:21
40,44:10
40,45:10
40,46:2
40,47:21
40,48:18
40,49:2
40,51:10
40,52:14
40,53:10
40,54:18
40,55:21
40,57:11
40,58:11
40,59:2
40,62:10
40,63:14
40,64:14
40,68:2
40,69:7
40,70:21
41,2:10
41,3:10
41,4:10
41,5:10
41,6:14
41,7:10
41,8:6
41,10:6
41,11:7
41,12:7
41,13:19
41,14:10
41,16:14
41,17:7
41,18:15
41,19:15
41,20:15
41,21:10
41,22:19
41,23:4
41,25:14
41,26:21
41,27:21
41,28:21
41,29:11
41,30:14
41,31:4
41,32:14
41,33:4
41,34:21
41,35:11
41,36:3
41,37:3
41,38:3
41,39:23
41,40:21
41,44:11
41,45:11
41,46:23
41,48:3
41,49:23
41,51:11
41,52:7
41,53:11
41,54:3
41,56:21
41,57:10
41,58:10
41,59:19
41,60:21
41,61:21
41,62:11
41,63:7
41,64:7
41,65:21
41,66:21
41,67:21
41,68:23
41,69:14
42,44:11
42,45:11
42,46:23
42,48:3
42,49:23
42,51:11
42,52:7
42,53:11
42,54:3
42,56:21
42,57:10
42,58:10
42,59:19
42,60:21
42,61:21
42,62:11
42,63:7
42,64:7
42,65:21
42,66:21
42,67:21
42,68:23
42,69:14
43,44:11
43,45:11
43,46:23
43,48:3
43,49:23
43,51:11
43,52:7
43,53:11
43,54:3
43,56:21
43,57:10
43,58:10
43,59:19
43,60:21
43,61:21
43,62:11
43,63:7
43,64:7
43,65:21
43,66:21
43,67:21
43,68:23
43,69:14
44,36:8
44,37:8
44,38:8
44,39:12
44,40:10
44,41:11
44,42:11
44,43:11
44,48:8
44,49:12
44,52:4
44,54:8
44,55:11
44,56:10
44,57:1
44,58:1
44,59:8
44,60:10
44,61:10
44,63:4
44,64:4
44,65:10
44,66:10
44,67:10
44,68:12
44,69:3
44,70:11
45,36:8
45,37:8
45,38:8
45,39:12
45,40:10
45,41:11
45,42:11
45,43:11
45,46:12
45,48:8
45,49:12
45,52:4
45,54:8
45,55:11
45,56:10
45,57:1
45,58:1
45,59:8
45,60:10
45,61:10
45,63:4
45,64:4
45,65:10
45,66:10
45,67:10
45,68:12
45,69:3
45,70:11
46,36:20
46,37:20
46,38:20
46,40:2
46,41:23
46,42:23
46,43:23
46,47:23
46,48:20
46,51:12
46,52:16
46,53:12
46,54:20
46,55:23
46,56:2
46,57:13
46,58:13
46,59:4
46,60:2
46,61:2
46,62:12
46,63:16
46,64:16
46,65:2
46,66:2
46,67:2
46,69:9
46,70:23
47,36:3
47,37:3
47,38:3
47,39:23
47,40:21
47,48:3
47,49:23
47,51:11
47,52:7
47,53:11
47,54:3
47,56:21
47,57:10
47,58:10
47,59:19
47,60:21
47,61:21
47,62:11
47,63:7
47,64:7
47,65:21
47,66:21
47,67:21
47,68:23
47,69:14
48,39:20
48,40:18
48,41:3
48,42:3
48,43:3
48,44:8
48,45:8
48,46:20
48,47:3
48,49:20
48,51:8
48,52:4
48,53:8
48,55:3
48,56:18
48,57:7
48,58:7
48,59:16
48,60:18
48,61:18
48,62:8
48,63:4
48,64:4
48,65:18
48,66:18
48,67:18
48,68:20
48,69:11
48,70:3
49,36:20
49,37:20
49,38:20
49,40:2
49,41:23
49,42:23
49,43:23
49,44:12
49,45:12
49,47:23
49,50:23
49,51:12
49,52:16
49,53:12
49,54:20
49,55:23
49,56:2
49,57:13
49,58:13
49,59:4
49,60:2
49,61:2
49,62:12
49,63:16
49,64:16
49,65:2
49,66:2
49,67:2
49,69:9
49,70:23
50,51:11
50,52:7
50,53:11
50,54:3
50,56:21
50,57:10
50,58:10
50,59:19
50,60:21
50,61:21
50,62:11
50,63:7
50,64:7
50,65:21
50,66:21
50,67:21
50,68:23
50,69:14
51,36:8
51,37:8
51,38:8
51,39:12
51,40:10
51,41:11
51,42:11
51,43:11
51,46:12
51,47:11
51,48:8
51,49:12
51,50:11
51,52:4
51,56:10
51,57:1
51,58:1
51,59:8
51,60:10
51,61:10
51,63:4
51,64:4
51,65:10
51,66:10
51,67:10
51,68:12
51,69:3
51,70:11
52,36:4
52,37:4
52,38:4
52,39:16
52,40:14
52,41:7
52,42:7
52,43:7
52,44:4
52,45:4
52,46:16
52,47:7
52,48:4
52,49:16
52,50:7
52,53:4
52,54:4
52,56:14
52,57:3
52,58:3
52,59:12
52,60:14
52,61:14
52,62:4
52,65:14
52,66:14
52,67:14
52,68:16
52,69:7
52,70:7
53,36:8
53,37:8
53,38:8
53,39:12
53,40:10
53,41:11
53,42:11
53,43:11
53,46:12
53,47:11
53,48:8
53,49:12
53,50:11
53,52:4
53,54:8
53,56:10
53,57:1
53,58:1
53,59:8
53,60:10
53,61:10
53,63:4
53,64:4
53,65:10
53,66:10
53,67:10
53,68:12
53,69:3
53,70:11
54,39:20
54,40:18
54,41:3
54,42:3
54,43:3
54,44:8
54,45:8
54,46:20
54,47:3
54,49:20
54,50:3
54,55:3
54,56:18
54,57:7
54,58:7
54,59:16
54,60:18
54,61:18
54,62:8
54,63:4
54,64:4
54,65:18
54,66:18
54,67:18
54,68:20
54,69:11
54,70:3
55,36:3
55,37:3
55,38:3
55,39:23
55,40:21
55,44:11
55,45:11
55,46:23
55,48:3
55,49:23
55,56:21
55,57:10
55,58:10
55,59:19
55,60:21
55,61:21
55,62:11
55,63:7
55,64:7
55,65:21
55,66:21
55,67:21
55,68:23
55,69:14
56,36:18
56,37:18
56,38:18
56,39:2
56,41:21
56,42:21
56,43:21
56,44:10
56,45:10
56,46:2
56,47:21
56,48:18
56,49:2
56,50:21
56,51:10
56,52:14
56,53:10
56,54:18
56,55:21
56,57:11
56,58:11
56,59:2
56,62:10
56,63:14
56,64:14
56,68:2
56,69:7
56,70:21
57,6:4
57,8:4
57,9:10
57,10:4
57,11:3
57,12:3
57,13:9
57,20:5
57,22:9
57,23:6
57,24:10
57,25:4
57,26:11
57,27:11
57,28:11
57,29:1
57,30:4
57,31:6
57,32:4
57,33:6
57,34:11
57,35:1
57,36:7
57,37:7
57,38:7
57,39:13
57,40:11
57,41:10
57,42:10
57,43:10
57,44:1
57,45:1
57,46:13
57,47:10
57,48:7
57,49:13
57,50:10
57,51:1
57,52:3
57,53:1
57,54:7
57,55:10
57,56:11
57,61:11
57,62:1
57,63:3
57,64:3
57,65:11
57,66:11
57,67:11
57,68:13
57,69:4
57,70:10
58,6:4
58,8:4
58,9:10
58,10:4
58,11:3
58,12:3
58,13:9
58,20:5
58,22:9
58,23:6
58,24:10
58,25:4
58,26:11
58,27:11
58,28:11
58,29:1
58,30:4
58,31:6
58,32:4
58,33:6
58,34:11
58,35:1
58,36:7
58,37:7
58,38:7
58,39:13
58,40:11
58,41:10
58,42:10
58,43:10
58,44:1
58,45:1
58,46:13
58,47:10
58,48:7
58,49:13
58,50:10
58,51:1
58,52:3
58,53:1
58,54:7
58,55:10
58,56:11
58,59:9
58,61:11
58,62:1
58,63:3
58,64:3
58,65:11
58,66:11
58,67:11
58,68:13
58,69:4
58,70:10
59,1:9
59,2:9
59,3:9
59,4:9
59,5:9
59,6:5
59,7:9
59,8:13
59,9:19
59,10:13
59,11:12
59,12:12
59,14:9
59,20:4
59,21:9
59,23:15
59,24:19
59,25:5
59,26:2
59,27:2
59,28:2
59,29:8
59,30:5
59,31:15
59,32:5
59,33:15
59,34:2
59,35:8
59,36:16
59,37:16
59,38:16
59,39:4
59,40:2
59,41:19
59,42:19
59,43:19
59,44:8
59,45:8
59,46:4
59,47:19
59,48:16
59,49:4
59,50:19
59,51:8
59,52:12
59,53:8
59,54:16
59,55:19
59,56:2
59,60:2
59,61:2
59,62:8
59,63:12
59,64:12
59,65:2
59,66:2
59,67:2
59,68:4
59,69:5
59,70:19
60,36:18
60,37:18
60,38:18
60,39:2
60,41:21
60,42:21
60,43:21
60,44:10
60,45:10
60,46:2
60,47:21
60,48:18
60,49:2
60,50:21
60,51:10
60,52:14
60,53:10
60,54:18
60,55:21
60,62:10
60,63:14
60,64:14
60,68:2
60,69:7
60,70:21
61,36:18
61,37:18
61,38:18
61,39:2
61,41:21
61,42:21
61,43:21
61,44:10
61,45:10
61,46:2
61,47:21
61,48:18
61,49:2
61,50:21
61,51:10
61,52:14
61,53:10
61,54:18
61,55:21
61,57:11
61,58:11
61,59:2
61,62:10
61,63:14
61,64:14
61,68:2
61,69:7
61,70:21
62,36:8
62,37:8
62,38:8
62,39:12
62,40:10
62,41:11
62,42:11
62,43:11
62,46:12
62,47:11
62,48:8
62,49:12
62,50:11
62,52:4
62,54:8
62,55:11
62,56:10
62,57:1
62,58:1
62,59:8
62,60:10
62,61:10
62,63:4
62,68:12
62,69:3
62,70:11
63,36:4
63,37:4
63,38:4
63,39:16
63,40:14
63,41:7
63,42:7
63,43:7
63,44:4
63,45:4
63,46:16
63,47:7
63,48:4
63,49:16
63,50:7
63,51:4
63,53:4
63,54:4
63,55:7
63,56:14
63,57:3
63,58:3
63,59:12
63,60:14
63,61:14
63,68:16
63,69:7
63,70:7
64,36:4
64,37:4
64,38:4
64,39:16
64,40:14
64,41:7
64,42:7
64,43:7
64,44:4
64,45:4
64,46:16
64,47:7
64,48:4
64,49:16
64,50:7
64,51:4
64,53:4
64,54:4
64,55:7
64,56:14
64,57:3
64,58:3
64,59:12
64,60:14
64,61:14
64,65:14
64,66:14
64,67:14
64,68:16
64,69:7
64,70:7
65,36:18
65,37:18
65,38:18
65,39:2
65,41:21
65,42:21
65,43:21
65,44:10
65,45:10
65,46:2
65,47:21
65,48:18
65,49:2
65,50:21
65,51:10
65,52:14
65,53:10
65,54:18
65,55:21
65,57:11
65,58:11
65,59:2
65,68:2
65,69:7
65,70:21
66,36:18
66,37:18
66,38:18
66,39:2
66,41:21
66,42:21
66,43:21
66,44:10
66,45:10
66,46:2
66,47:21
66,48:18
66,49:2
66,50:21
66,51:10
66,52:14
66,53:10
66,54:18
66,55:21
66,57:11
66,58:11
66,59:2
66,68:2
66,69:7
66,70:21
67,36:18
67,37:18
67,38:18
67,39:2
67,41:21
67,42:21
67,43:21
67,44:10
67,45:10
67,46:2
67,47:21
67,48:18
67,49:2
67,50:21
67,51:10
67,52:14
67,53:10
67,54:18
67,55:21
67,57:11
67,58:11
67,59:2
67,68:2
67,69:7
67,70:21
68,4:13
68,5:13
68,6:9
68,7:13
68,8:17
68,9:23
68,10:17
68,11:16
68,12:16
68,13:4
68,14:13
68,15:23
68,16:9
68,17:16
68,18:8
68,19:8
68,20:8
68,21:13
68,22:4
68,23:19
68,24:23
68,25:9
68,26:2
68,27:2
68,28:2
68,29:12
68,30:9
68,31:19
68,32:9
68,33:19
68,34:2
68,35:12
68,36:20
68,37:20
68,38:20
68,40:2
68,41:23
68,42:23
68,43:23
68,44:12
68,45:12
68,47:23
68,48:20
68,50:23
68,51:12
68,52:16
68,53:12
68,54:20
68,55:23
68,56:2
68,57:13
68,58:13
68,59:4
68,60:2
68,61:2
68,62:12
68,63:16
68,64:16
68,65:2
68,66:2
68,67:2
68,69:9
68,70:23
69,2:4
69,3:4
69,4:4
69,5:4
69,7:4
69,8:8
69,9:14
69,10:8
69,11:7
69,12:7
69,13:5
69,14:4
69,15:14
69,17:7
69,18:1
69,19:1
69,20:1
69,21:4
69,22:5
69,23:10
69,24:14
69,26:7
69,27:7
69,28:7
69,29:3
69,31:10
69,33:10
69,34:7
69,35:3
69,36:11
69,37:11
69,38:11
69,39:9
69,40:7
69,41:14
69,42:14
69,43:14
69,44:3
69,45:3
69,46:9
69,47:14
69,48:11
69,49:9
69,50:14
69,51:3
69,52:7
69,53:3
69,54:11
69,55:14
69,56:7
69,57:4
69,58:4
69,59:5
69,60:7
69,61:7
69,62:3
69,63:7
69,64:7
69,65:7
69,66:7
69,67:7
69,68:9
69,70:14
70,2:10
70,3:10
70,4:10
70,5:10
70,6:14
70,7:10
70,8:6
70,10:6
70,11:7
70,12:7
70,13:19
70,14:10
70,16:14
70,17:7
70,18:15
70,19:15
70,20:15
70,21:10
70,22:19
70,23:4
70,25:14
70,26:21
70,27:21
70,28:21
70,29:11
70,30:14
70,31:4
70,32:14
70,33:4
70,34:21
70,35:11
70,36:3
70,37:3
70,38:3
70,39:23
70,40:21
70,44:11
70,45:11
70,46:23
70,48:3
70,49:23
70,51:11
70,52:7
70,53:11
70,54:3
70,56:21
70,57:10
70,58:10
70,59:19
70,60:21
70,61:21
70,62:11
70,63:7
70,64:7
70,65:21
70,66:21
70,67:21
70,68:23
70,69:14

<setup times backward>
1,16:4
1,18:5
1,19:5
1,20:5
1,22:9
1,30:4
1,59:9
2,16:4
2,18:5
2,19:5
2,20:5
2,22:9
2,30:4
2,59:9
2,69:4
3,16:4
3,18:5
3,19:5
3,20:5
3,22:9
3,30:4
3,59:9
3,69:4
4,16:4
4,18:5
4,19:5
4,20:5
4,22:9
4,30:4
4,59:9
4,68:13
4,69:4
5,16:4
5,18:5
5,19:5
5,20:5
5,22:9
5,59:9
5,68:13
5,69:4
6,18:1
6,19:1
6,20:1
6,22:5
6,59:5
6,68:9
7,6:4
7,16:4
7,18:5
7,19:5
7,20:5
7,22:9
7,30:4
7,59:9
7,68:13
7,69:4
8,1:4
8,2:4
8,3:4
8,4:4
8,5:4
8,6:8
8,7:4
8,11:1
8,16:8
8,17:1
8,18:9
8,19:9
8,20:9
8,21:4
8,22:13
8,30:8
8,57:4
8,58:4
8,59:13
8,68:17
8,69:8
9,1:10
9,2:10
9,3:10
9,4:10
9,5:10
9,6:14
9,7:10
9,8:6
9,16:14
9,17:7
9,18:15
9,19:15
9,20:15
9,21:10
9,22:19
9,30:14
9,57:10
9,58:10
9,59:19
9,68:23
9,69:14
10,1:4
10,2:4
10,3:4
10,4:4
10,5:4
10,6:8
10,7:4
10,16:8
10,17:1
10,18:9
10,19:9
10,20:9
10,21:4
10,22:13
10,30:8
10,57:4
10,58:4
10,59:13
10,68:17
10,69:8
11,1:3
11,2:3
11,3:3
11,4:3
11,5:3
11,6:7
11,7:3
11,16:7
11,18:8
11,19:8
11,20:8
11,21:3
11,22:12
11,30:7
11,57:3
11,58:3
11,59:12
11,68:16
11,69:7
12,1:3
12,2:3
12,3:3
12,4:3
12,5:3
12,6:7
12,7:3
12,16:7
12,18:8
12,19:8
12,20:8
12,21:3
12,22:12
12,30:7
12,57:3
12,58:3
12,59:12
12,68:16
12,69:7
13,68:4
14,6:4
14,13:9
14,16:4
14,18:5
14,19:5
14,20:5
14,22:9
14,30:4
14,59:9
14,68:13
14,69:4
15,1:10
15,2:10
15,3:10
15,4:10
15,5:10
15,6:14
15,7:10
15,8:6
15,10:6
15,11:7
15,12:7
15,13:19
15,14:10
15,30:14
15,68:23
15,69:14
16,13:5
16,68:9
17,1:3
17,2:3
17,3:3
17,4:3
17,5:3
17,6:7
17,7:3
17,13:12
17,14:3
17,16:7
17,18:8
17,30:7
17,68:16
17,69:7
18,13:4
18,68:8
19,13:4
19,68:8
20,13:4
20,22:4
20,59:4
20,68:8
21,6:4
21,13:9
21,16:4
21,18:5
21,19:5
21,20:5
21,22:9
21,30:4
21,59:9
21,68:13
21,69:4
22,68:4
23,1:6
23,2:6
23,3:6
23,4:6
23,5:6
23,6:10
23,7:6
23,8:2
23,10:2
23,11:3
23,12:3
23,13:15
23,14:6
23,16:10
23,17:3
23,18:11
23,19:11
23,20:11
23,21:6
23,22:15
23,30:10
23,57:6
23,58:6
23,59:15
23,68:19
23,69:10
24,1:10
24,2:10
24,3:10
24,4:10
24,5:10
24,6:14
24,7:10
24,8:6
24,10:6
24,11:7
24,12:7
24,13:19
24,14:10
24,16:14
24,17:7
24,18:15
24,19:15
24,20:15
24,21:10
24,22:19
24,23:4
24,30:14
24,31:4
24,32:14
24,33:4
24,34:21
24,57:10
24,58:10
24,59:19
24,68:23
24,69:14
25,13:5
25,18:1
25,19:1
25,20:1
25,22:5
25,34:7
25,59:5
25,68:9
26,68:2
27,68:2
28,68:2
29,6:3
29,13:8
29,16:3
29,18:4
29,19:4
29,20:4
29,22:8
29,25:3
29,26:10
29,27:10
29,28:10
29,30:3
29,32:3
29,34:10
29,59:8
29,68:12
29,69:3
30,13:5
30,18:1
30,19:1
30,20:1
30,22:5
30,26:7
30,27:7
30,28:7
30,34:7
30,59:5
30,68:9
31,1:6
31,2:6
31,3:6
31,4:6
31,5:6
31,6:10
31,7:6
31,8:2
31,10:2
31,11:3
31,12:3
31,13:15
31,14:6
31,16:10
31,17:3
31,18:11
31,19:11
31,20:11
31,21:6
31,22:15
31,25:10
31,26:17
31,27:17
31,28:17
31,29:7
31,30:10
31,34:17
31,57:6
31,58:6
31,59:15
31,68:19
31,69:10
32,13:5
32,18:1
32,19:1
32,20:1
32,22:5
32,26:7
32,27:7
32,28:7
32,34:7
32,59:5
32,68:9
33,1:6
33,2:6
33,3:6
33,4:6
33,5:6
33,6:10
33,7:6
33,8:2
33,10:2
33,11:3
33,12:3
33,13:15
33,14:6
33,16:10
33,17:3
33,18:11
33,19:11
33,20:11
33,21:6
33,22:15
33,25:10
33,26:17
33,27:17
33,28:17
33,29:7
33,30:10
33,32:10
33,57:6
33,58:6
33,59:15
33,68:19
33,69:10
34,68:2
35,6:3
35,13:8
35,16:3
35,18:4
35,19:4
35,20:4
35,22:8
35,25:3
35,26:10
35,27:10
35,28:10
35,30:3
35,32:3
35,34:10
35,59:8
35,68:12
35,69:3
36,1:7
36,2:7
36,3:7
36,4:7
36,5:7
36,6:11
36,7:7
36,8:3
36,10:3
36,11:4
36,12:4
36,13:16
36,14:7
36,16:11
36,17:4
36,18:12
36,19:12
36,20:12
36,21:7
36,22:16
36,23:1
36,25:11
36,26:18
36,27:18
36,28:18
36,29:8
36,30:11
36,31:1
36,32:11
36,33:1
36,34:18
36,35:8
36,44:8
36,45:8
36,46:20
36,49:20
36,51:8
36,52:4
36,53:8
36,56:18
36,57:7
36,58:7
36,59:16
36,60:18
36,61:18
36,62:8
36,63:4
36,64:4
36,65:18
36,66:18
36,67:18
36,68:20
36,69:11
37,1:7
37,2:7
37,3:7
37,4:7
37,5:7
37,6:11
37,7:7
37,8:3
37,10:3
37,11:4
37,12:4
37,13:16
37,14:7
37,16:11
37,17:4
37,18:12
37,19:12
37,20:12
37,21:7
37,22:16
37,23:1
37,25:11
37,26:18
37,27:18
37,28:18
37,29:8
37,30:11
37,31:1
37,32:11
37,33:1
37,34:18
37,35:8
37,44:8
37,45:8
37,46:20
37,49:20
37,51:8
37,52:4
37,53:8
37,56:18
37,57:7
37,58:7
37,59:16
37,60:18
37,61:18
37,62:8
37,63:4
37,64:4
37,65:18
37,66:18
37,67:18
37,68:20
37,69:11
38,1:7
38,2:7
38,3:7
38,4:7
38,5:7
38,6:11
38,7:7
38,8:3
38,10:3
38,11:4
38,12:4
38,13:16
38,14:7
38,16:11
38,17:4
38,18:12
38,19:12
38,20:12
38,21:7
38,22:16
38,23:1
38,25:11
38,26:18
38,27:18
38,28:18
38,29:8
38,30:11
38,31:1
38,32:11
38,33:1
38,34:18
38,35:8
38,44:8
38,45:8
38,46:20
38,49:20
38,51:8
38,52:4
38,53:8
38,56:18
38,57:7
38,58:7
38,59:16
38,60:18
38,61:18
38,62:8
38,63:4
38,64:4
38,65:18
38,66:18
38,67:18
38,68:20
38,69:11
40,39:2
40,46:2
40,49:2
40,68:2
41,1:10
41,2:10
41,3:10
41,4:10
41,5:10
41,6:14
41,7:10
41,8:6
41,10:6
41,11:7
41,12:7
41,13:19
41,14:10
41,16:14
41,17:7
41,18:15
41,19:15
41,20:15
41,21:10
41,22:19
41,23:4
41,25:14
41,26:21
41,27:21
41,28:21
41,29:11
41,30:14
41,31:4
41,32:14
41,33:4
41,34:21
41,35:11
41,36:3
41,37:3
41,38:3
41,39:23
41,40:21
41,44:11
41,45:11
41,46:23
41,48:3
41,49:23
41,51:11
41,52:7
41,53:11
41,54:3
41,56:21
41,57:10
41,58:10
41,59:19
41,60:21
41,61:21
41,62:11
41,63:7
41,64:7
41,65:21
41,66:21
41,67:21
41,68:23
41,69:14
42,1:10
42,2:10
42,3:10
42,4:10
42,5:10
42,6:14
42,7:10
42,8:6
42,10:6
42,11:7
42,12:7
42,13:19
42,14:10
42,16:14
42,17:7
42,18:15
42,19:15
42,20:15
42,21:10
42,22:19
42,23:4
42,25:14
42,26:21
42,27:21
42,28:21
42,29:11
42,30:14
42,31:4
42,32:14
42,33:4
42,34:21
42,35:11
42,36:3
42,37:3
42,38:3
42,39:23
42,40:21
42,44:11
42,45:11
42,46:23
42,48:3
42,49:23
42,51:11
42,52:7
42,53:11
42,54:3
42,56:21
42,57:10
42,58:10
42,59:19
42,60:21
42,61:21
42,62:11
42,63:7
42,64:7
42,65:21
42,66:21
42,67:21
42,68:23
42,69:14
43,1:10
43,2:10
43,3:10
43,4:10
43,5:10
43,6:14
43,7:10
43,8:6
43,10:6
43,11:7
43,12:7
43,13:19
43,14:10
43,16:14
43,17:7
43,18:15
43,19:15
43,20:15
43,21:10
43,22:19
43,23:4
43,25:14
43,26:21
43,27:21
43,28:21
43,29:11
43,30:14
43,31:4
43,32:14
43,33:4
43,34:21
43,35:11
43,36:3
43,37:3
43,38:3
43,39:23
43,40:21
43,44:11
43,45:11
43,46:23
43,48:3
43,49:23
43,51:11
43,52:7
43,53:11
43,54:3
43,56:21
43,57:10
43,58:10
43,59:19
43,60:21
43,61:21
43,62:11
43,63:7
43,64:7
43,65:21
43,66:21
43,67:21
43,68:23
43,69:14
44,6:3
44,13:8
44,16:3
44,18:4
44,19:4
44,20:4
44,22:8
44,25:3
44,26:10
44,27:10
44,28:10
44,30:3
44,32:3
44,34:10
44,39:12
44,40:10
44,49:12
44,56:10
44,59:8
44,60:10
44,61:10
44,65:10
44,66:10
44,67:10
44,68:12
44,69:3
45,6:3
45,13:8
45,16:3
45,18:4
45,19:4
45,20:4
45,22:8
45,25:3
45,26:10
45,27:10
45,28:10
45,30:3
45,32:3
45,34:10
45,39:12
45,40:10
45,49:12
45,56:10
45,59:8
45,60:10
45,61:10
45,65:10
45,66:10
45,67:10
45,68:12
45,69:3
47,1:10
47,2:10
47,3:10
47,4:10
47,5:10
47,6:14
47,7:10
47,8:6
47,10:6
47,11:7
47,12:7
47,13:19
47,14:10
47,16:14
47,17:7
47,18:15
47,19:15
47,20:15
47,21:10
47,22:19
47,23:4
47,25:14
47,26:21
47,27:21
47,28:21
47,29:11
47,30:14
47,31:4
47,32:14
47,33:4
47,34:21
47,35:11
47,36:3
47,37:3
47,38:3
47,39:23
47,40:21
47,44:11
47,45:11
47,46:23
47,48:3
47,49:23
47,51:11
47,52:7
47,53:11
47,54:3
47,56:21
47,57:10
47,58:10
47,59:19
47,60:21
47,61:21
47,62:11
47,63:7
47,64:7
47,65:21
47,66:21
47,67:21
47,68:23
47,69:14
48,1:7
48,2:7
48,3:7
48,4:7
48,5:7
48,6:11
48,7:7
48,8:3
48,10:3
48,11:4
48,12:4
48,13:16
48,14:7
48,16:11
48,17:4
48,18:12
48,19:12
48,20:12
48,21:7
48,22:16
48,23:1
48,25:11
48,26:18
48,27:18
48,28:18
48,29:8
48,30:11
48,31:1
48,32:11
48,33:1
48,34:18
48,35:8
48,39:20
48,40:18
48,44:8
48,45:8
48,46:20
48,51:8
48,52:4
48,53:8
48,56:18
48,57:7
48,58:7
48,59:16
48,60:18
48,61:18
48,62:8
48,63:4
48,64:4
48,65:18
48,66:18
48,67:18
48,68:20
48,69:11
50,1:10
50,2:10
50,3:10
50,4:10
50,5:10
50,6:14
50,7:10
50,8:6
50,10:6
50,11:7
50,12:7
50,13:19
50,14:10
50,16:14
50,17:7
50,18:15
50,19:15
50,20:15
50,21:10
50,22:19
50,23:4
50,25:14
50,26:21
50,27:21
50,28:21
50,29:11
50,30:14
50,31:4
50,32:14
50,33:4
50,34:21
50,35:11
50,36:3
50,37:3
50,38:3
50,39:23
50,40:21
50,44:11
50,45:11
50,46:23
50,48:3
50,49:23
50,51:11
50,52:7
50,53:11
50,54:3
50,56:21
50,57:10
50,58:10
50,59:19
50,60:21
50,61:21
50,62:11
50,63:7
50,64:7
50,65:21
50,66:21
50,67:21
50,68:23
50,69:14
51,6:3
51,13:8
51,16:3
51,18:4
51,19:4
51,20:4
51,22:8
51,25:3
51,26:10
51,27:10
51,28:10
51,30:3
51,32:3
51,34:10
51,39:12
51,40:10
51,46:12
51,49:12
51,56:10
51,59:8
51,60:10
51,61:10
51,65:10
51,66:10
51,67:10
51,68:12
51,69:3
52,1:3
52,2:3
52,3:3
52,4:3
52,5:3
52,6:7
52,7:3
52,13:12
52,14:3
52,16:7
52,18:8
52,19:8
52,20:8
52,21:3
52,22:12
52,25:7
52,26:14
52,27:14
52,28:14
52,29:4
52,30:7
52,32:7
52,34:14
52,35:4
52,39:16
52,40:14
52,44:4
52,45:4
52,46:16
52,49:16
52,51:4
52,53:4
52,56:14
52,57:3
52,58:3
52,59:12
52,60:14
52,61:14
52,62:4
52,65:14
52,66:14
52,67:14
52,68:16
52,69:7
53,6:3
53,13:8
53,16:3
53,18:4
53,19:4
53,20:4
53,22:8
53,25:3
53,26:10
53,27:10
53,28:10
53,30:3
53,32:3
53,34:10
53,39:12
53,40:10
53,46:12
53,49:12
53,56:10
53,59:8
53,60:10
53,61:10
53,65:10
53,66:10
53,67:10
53,68:12
53,69:3
54,1:7
54,2:7
54,3:7
54,4:7
54,5:7
54,6:11
54,7:7
54,8:3
54,10:3
54,11:4
54,12:4
54,13:16
54,14:7
54,16:11
54,17:4
54,18:12
54,19:12
54,20:12
54,21:7
54,22:16
54,23:1
54,25:11
54,26:18
54,27:18
54,28:18
54,29:8
54,30:11
54,31:1
54,32:11
54,33:1
54,34:18
54,35:8
54,39:20
54,40:18
54,44:8
54,45:8
54,46:20
54,49:20
54,51:8
54,52:4
54,53:8
54,56:18
54,57:7
54,58:7
54,59:16
54,60:18
54,61:18
54,62:8
54,63:4
54,64:4
54,65:18
54,66:18
54,67:18
54,68:20
54,69:11
55,1:10
55,2:10
55,3:10
55,4:10
55,5:10
55,6:14
55,7:10
55,8:6
55,10:6
55,11:7
55,12:7
55,13:19
55,14:10
55,16:14
55,17:7
55,18:15
55,19:15
55,20:15
55,21:10
55,22:19
55,23:4
55,25:14
55,26:21
55,27:21
55,28:21
55,29:11
55,30:14
55,31:4
55,32:14
55,33:4
55,34:21
55,35:11
55,36:3
55,37:3
55,38:3
55,39:23
55,40:21
55,44:11
55,45:11
55,46:23
55,48:3
55,49:23
55,51:11
55,52:7
55,53:11
55,54:3
55,56:21
55,57:10
55,58:10
55,59:19
55,60:21
55,61:21
55,62:11
55,63:7
55,64:7
55,65:21
55,66:21
55,67:21
55,68:23
55,69:14
56,39:2
56,46:2
56,49:2
56,68:2
57,6:4
57,13:9
57,16:4
57,18:5
57,19:5
57,20:5
57,22:9
57,25:4
57,26:11
57,27:11
57,28:11
57,29:1
57,30:4
57,32:4
57,34:11
57,35:1
57,39:13
57,40:11
57,44:1
57,45:1
57,46:13
57,49:13
57,51:1
57,53:1
57,56:11
57,61:11
57,62:1
57,65:11
57,66:11
57,67:11
57,68:13
57,69:4
58,6:4
58,13:9
58,16:4
58,18:5
58,19:5
58,20:5
58,22:9
58,25:4
58,26:11
58,27:11
58,28:11
58,29:1
58,30:4
58,32:4
58,34:11
58,35:1
58,39:13
58,40:11
58,44:1
58,45:1
58,46:13
58,49:13
58,51:1
58,53:1
58,56:11
58,61:11
58,62:1
58,65:11
58,66:11
58,67:11
58,68:13
58,69:4
59,26:2
59,27:2
59,28:2
59,34:2
59,39:4
59,40:2
59,46:4
59,49:4
59,56:2
59,61:2
59,65:2
59,66:2
59,67:2
59,68:4
60,39:2
60,46:2
60,49:2
60,68:2
61,39:2
61,46:2
61,49:2
61,68:2
62,6:3
62,13:8
62,16:3
62,18:4
62,19:4
62,20:4
62,22:8
62,25:3
62,26:10
62,27:10
62,28:10
62,30:3
62,32:3
62,34:10
62,39:12
62,40:10
62,46:12
62,49:12
62,56:10
62,59:8
62,60:10
62,61:10
62,68:12
62,69:3
63,1:3
63,2:3
63,3:3
63,4:3
63,5:3
63,6:7
63,7:3
63,13:12
63,14:3
63,16:7
63,18:8
63,19:8
63,20:8
63,21:3
63,22:12
63,25:7
63,26:14
63,27:14
63,28:14
63,29:4
63,30:7
63,32:7
63,34:14
63,35:4
63,39:16
63,40:14
63,44:4
63,45:4
63,46:16
63,49:16
63,51:4
63,53:4
63,56:14
63,57:3
63,58:3
63,59:12
63,60:14
63,61:14
63,62:4
63,68:16
63,69:7
64,1:3
64,2:3
64,3:3
64,4:3
64,5:3
64,6:7
64,7:3
64,13:12
64,14:3
64,16:7
64,18:8
64,19:8
64,20:8
64,21:3
64,22:12
64,25:7
64,26:14
64,27:14
64,28:14
64,29:4
64,30:7
64,32:7
64,34:14
64,35:4
64,39:16
64,40:14
64,44:4
64,45:4
64,46:16
64,49:16
64,51:4
64,53:4
64,56:14
64,57:3
64,58:3
64,59:12
64,60:14
64,61:14
64,62:4
64,68:16
64,69:7
65,39:2
65,46:2
65,49:2
65,68:2
66,39:2
66,46:2
66,49:2
66,68:2
67,39:2
67,46:2
67,49:2
67,68:2
69,13:5
69,18:1
69,19:1
69,20:1
69,22:5
69,26:7
69,27:7
69,28:7
69,34:7
69,39:9
69,40:7
69,46:9
69,49:9
69,56:7
69,59:5
69,60:7
69,61:7
69,65:7
69,66:7
69,67:7
69,68:9
70,1:10
70,2:10
70,3:10
70,4:10
70,5:10
70,6:14
70,7:10
70,8:6
70,10:6
70,11:7
70,12:7
70,13:19
70,14:10
70,16:14
70,17:7
70,18:15
70,19:15
70,20:15
70,21:10
70,22:19
70,23:4
70,25:14
70,26:21
70,27:21
70,28:21
70,29:11
70,30:14
70,31:4
70,32:14
70,33:4
70,34:21
70,35:11
70,36:3
70,37:3
70,38:3
70,39:23
70,40:21
70,44:11
70,45:11
70,46:23
70,48:3
70,49:23
70,51:11
70,52:7
70,53:11
70,54:3
70,56:21
70,57:10
70,58:10
70,59:19
70,60:21
70,61:21
70,62:11
70,63:7
70,64:7
70,65:21
70,66:21
70,67:21
70,68:23
70,69:14

<end>

<optimal SALBP-1 value>
17


<rand seed>
467321153

